
Gurobi 9.1.1 (mac64, gurobi_cl) logging started Sat Mar  6 16:38:51 2021

Academic license - for non-commercial use only - expires 2021-04-06
Using license file /Users/agnese/gurobi.lic
Set parameter LogFile to value gurobi.log

Gurobi Optimizer version 9.1.1 build v9.1.1rc0 (mac64)
Copyright (c) 2020, Gurobi Optimization, LLC


Error 10003: Unable to open file '' for input


Gurobi 9.1.1 (mac64, gurobi_cl) logging started Sat Mar  6 16:39:18 2021

Academic license - for non-commercial use only - expires 2021-04-06
Using license file /Users/agnese/gurobi.lic
Set parameter LogFile to value gurobi.log

Gurobi Optimizer version 9.1.1 build v9.1.1rc0 (mac64)
Copyright (c) 2020, Gurobi Optimization, LLC

Read LP format model from file /Users/agnese/Documents/KTH-Work/GitHub_repositories/KTH-dESA/GLUCOSE/results/FINAL_2060/4.1_Baseline/new3/GLUCOSE_4.FinalBaseline_new3.lp
Reading time = 4.44 seconds
cost: 1097424 rows, 1087932 columns, 1788359 nonzeros
Thread count: 2 physical cores, 4 logical processors, using up to 4 threads
Optimize a model with 1097424 rows, 1087932 columns and 1788359 nonzeros
Model fingerprint: 0xde4afcd2
Coefficient statistics:
  Matrix range     [2e-08, 4e+11]
  Objective range  [7e-08, 4e+11]
  Bounds range     [0e+00, 0e+00]
  RHS range        [1e-04, 1e+06]
Warning: Model contains large matrix coefficient range
Warning: Model contains large objective coefficients
         Consider reformulating model or setting NumericFocus parameter
         to avoid numerical issues.

Concurrent LP optimizer: dual simplex and barrier
Showing barrier log only...

Presolve removed 1071887 rows and 1069851 columns
Presolve time: 1.53s
Presolved: 25537 rows, 18274 columns, 346993 nonzeros

Ordering time: 0.68s

Barrier statistics:
 AA' NZ     : 1.274e+06
 Factor NZ  : 6.832e+06 (roughly 70 MBytes of memory)
 Factor Ops : 5.021e+09 (less than 1 second per iteration)
 Threads    : 1

                  Objective                Residual
Iter       Primal          Dual         Primal    Dual     Compl     Time
   0   1.33157197e+21 -3.84970718e+17  2.46e+09 2.08e+12  9.24e+16     3s
   1   7.16698039e+20 -5.20168743e+17  2.42e+09 1.98e+12  9.01e+16     4s
   2   7.01876655e+20 -9.02421849e+17  1.81e+09 1.77e+12  7.37e+16     4s
   3   3.18835643e+20 -3.29160874e+18  7.36e+08 7.27e+11  3.72e+16     5s
   4   1.13640892e+20 -4.51439814e+18  2.33e+08 8.30e+10  1.31e+16     5s
   5   8.78847819e+18 -3.82689322e+18  1.77e+07 8.72e+07  1.10e+15     6s
   6   1.02615089e+18 -2.21654617e+18  2.06e+06 1.89e+07  1.59e+14     7s
   7   7.66673218e+17 -1.78863564e+18  1.60e+06 1.44e+07  1.22e+14     7s
   8   1.37671158e+17 -9.03299536e+17  2.70e+05 4.51e+06  3.21e+13     8s
   9   2.29841424e+16 -2.16549093e+17  4.38e+04 5.18e+05  6.55e+12     9s
  10   7.88947617e+15 -6.10635503e+16  1.44e+04 1.21e+05  1.97e+12     9s
  11   2.67679385e+15 -1.23878488e+16  4.75e+03 1.35e+04  5.02e+11    10s
  12   8.13129949e+14 -5.97742666e+15  1.42e+03 5.76e+03  1.94e+11    10s
  13   4.30086723e+14 -3.46949117e+15  7.79e+02 1.56e+03  1.09e+11    11s
  14   1.15430661e+14 -1.25572289e+15  1.84e+02 4.50e+02  3.37e+10    12s
  15   3.83620690e+13 -4.41041558e+14  5.49e+01 1.27e+02  1.12e+10    12s
  16   1.42363304e+13 -1.89550084e+14  1.35e+01 4.92e+01  4.49e+09    13s
  17   8.50313166e+12 -1.10426069e+14  3.97e+00 2.79e+01  2.56e+09    13s
  18   2.66554658e+12 -5.94002157e+13  2.96e-01 1.48e+01  1.29e+09    14s
  19   1.68136559e+12 -2.09740828e+13  1.59e-01 4.52e+00  4.69e+08    14s
  20   1.87480252e+11 -3.03587493e+12  6.85e-03 2.23e-01  6.64e+07    15s
  21   5.53926273e+10 -1.27072624e+11  4.60e-08 4.88e-03  3.75e+06    16s
  22   9.90058656e+08 -1.04406731e+10  2.38e-08 4.88e-04  2.35e+05    16s
  23   1.62466386e+08 -1.49334930e+09  3.65e-09 2.44e-04  3.41e+04    17s
  24   3.06629132e+07 -2.44001381e+08  1.73e-09 2.44e-04  5.65e+03    18s
  25   3.40912075e+06 -9.86707370e+06  1.80e-09 4.88e-04  2.73e+02    18s
  26   4.81499718e+05 -4.72624499e+05  1.13e-09 4.88e-04  1.96e+01    19s
  27   3.39974519e+05  1.89905297e+05  2.77e-09 4.88e-04  3.09e+00    20s
  28   3.28610815e+05  2.08080869e+05  2.14e-09 2.44e-04  2.48e+00    20s
  29   2.94764674e+05  2.47144736e+05  1.82e-09 2.44e-04  9.80e-01    21s
  30   2.78490867e+05  2.55199680e+05  7.13e-10 2.44e-04  4.79e-01    22s
  31   2.70299918e+05  2.58538435e+05  9.28e-10 2.44e-04  2.42e-01    22s
  32   2.63453683e+05  2.61870925e+05  3.45e-09 2.44e-04  3.26e-02    23s
  33   2.63059174e+05  2.62302673e+05  5.03e-09 2.44e-04  1.56e-02    23s
  34   2.62718625e+05  2.62632570e+05  1.41e-08 2.44e-04  1.91e-03    24s
  35   2.62678305e+05  2.62657516e+05  1.02e-08 2.44e-04  5.24e-04    25s

Barrier performed 35 iterations in 24.87 seconds
Barrier solve interrupted - model solved by another algorithm


Solved with dual simplex
Solved in 29396 iterations and 24.88 seconds
Optimal objective  2.626614711e+05

Wrote result file 'new3_resultsGUROBI.sol'

